c Random 5-CNF over 20 variables and 40 clauses
c Generated with `cnfgen`
c (C) 2012-2016 Massimo Lauria <lauria.massimo@gmail.com>
c https://massimolauria.github.io/cnfgen
c
c COMMAND LINE: cnfgen --output tmp-5-20-40.dimacs --output-format dimacs randkcnf 5 20 40
c
c sdimacs generated by gen-sdimacs
c
p cnf 20 40
r 0.5 1 2 3 4 5 6 7 8 9 10 0
e  11 12 13 14 15 16 17 18 19 20 0
-3 7 -17 -18 -20 0
-10 14 -15 -19 -20 0
3 4 6 -11 16 0
2 -6 -10 -11 -20 0
4 -11 12 -14 16 0
1 4 11 -17 18 0
-6 9 10 -12 -15 0
-4 -12 -14 -17 18 0
-7 11 -16 17 -19 0
1 -3 -4 7 -10 0
-4 7 10 18 20 0
4 -5 -8 -11 -19 0
3 10 -11 16 -19 0
7 -10 -12 -15 -20 0
-2 -4 -12 -13 -14 0
3 4 -10 15 -19 0
-3 -7 -14 -19 20 0
-1 -4 6 7 18 0
1 -4 -5 7 20 0
-1 3 10 -14 -20 0
2 5 -9 -13 -19 0
-5 12 14 17 -20 0
3 4 14 -16 19 0
2 -5 -6 12 -13 0
4 -5 -6 -10 -20 0
-3 4 6 -12 18 0
-4 -11 -13 -15 -17 0
2 -4 5 16 19 0
-1 -4 12 -14 -15 0
3 4 10 12 -15 0
-3 -7 8 -14 -16 0
1 6 -13 17 -19 0
-3 -7 9 12 -19 0
1 -6 12 13 -18 0
-1 -8 10 -16 17 0
3 -11 12 14 15 0
-7 -9 -14 -17 -19 0
-1 5 -7 10 -11 0
-7 -8 12 -15 -17 0
-3 5 8 16 20 0
